NAME : amtsp
TYPE : ATSP
DIMENSION : 11
EDGE_WEIGHT_TYPE : EXPLICIT
EDGE_WEIGHT_FORMAT : FULL_MATRIX
EDGE_WEIGHT_SECTION
0 201941 50569 202552 101683 203898 204503 102506 205483 102532 205354 
0 0 434 420 2833 3074 3633 3500 4247 3544 3807 
0 434 0 144 1083 2406 2966 1416 3579 1438 3139 
0 420 144 0 2413 2654 3213 3079 3826 3123 3386 
0 2833 1083 2413 0 272 582 463 1164 856 1527 
0 3074 2406 2654 272 0 310 670 923 1954 1286 
0 3633 2966 3213 582 310 0 411 590 1513 975 
0 3500 1416 3079 463 670 411 0 484 490 718 
0 4247 3579 3826 1164 923 590 484 0 622 362 
0 3544 1438 3123 856 1954 1513 490 622 0 278 
0 3807 3139 3386 1527 1286 975 718 362 278 0 
